Route #1: 28 63 72 82 98
Route #2: 78 83 73 41
Route #3: 15 29 79 50 66 40
Route #4: 64 43 26
Route #5: 45 58 7 46 3
Route #6: 89 38 30 44 88 61 65 35
Route #7: 11 8 37
Route #8: 68 60 97
Route #9: 4 49 27
Route #10: 19 5
Route #11: 59 13 6
Route #12: 95 57 81
Route #13: 14 75 70 91
Route #14: 18 9
Route #15: 67 17 77 85
Route #16: 48 90 99 100 39
Route #17: 56 10 93
Route #18: 69 55 87
Route #19: 16 2 71 36
Route #20: 23 42 21
Route #21: 101 53 52
Route #22: 47 25 33 32
Route #23: 22 92 84
Route #24: 96 74 54 34 31
Route #25: 94 76
Route #26: 80 86 12 20
Route #27: 62 24 51
